0 134 
1 137 
2 133 
3 135 
4 132 
5 130 
6 128 
7 131 
8 126 
9 121 
10 121 
11 119 
12 117 
13 118 
14 117 
15 116 
16 114 
17 110 
18 109 
19 104 
20 101 
21 103 
22 102 
23 99 
24 99 
25 98 
26 102 
27 99 
28 95 
29 97 
30 95 
31 95 
32 95 
33 82 
34 84 
35 86 
36 85 
37 87 
38 88 
39 88 
40 85 
41 82 
42 83 
43 80 
44 76 
45 77 
46 74 
47 71 
48 68 
49 66 
50 64 
51 62 
52 62 
53 58 
54 55 
55 54 
56 50 
57 50 
58 46 
59 44 
60 41 
61 41 
62 42 
63 38 
64 34 
65 29 
66 25 
67 26 
68 26 
69 28 
70 28 
71 30 
72 29 
73 27 
74 24 
75 26 
76 18 
77 19 
78 17 
79 13 
80 11 
81 11 
82 10 
83 7 
84 7 
85 4 
86 4 
87 2 
88 0 
89 0 

